# Solution for model sdp
# Objective value = 109.5
x[6.5,6.0] 1
x[7.0,5.5] 2
x[7.5,5.0] 3
x[12.5,8.0] 3
x[12.5,8.75] 1
x[12.5,9.5] 2
x[30.5,6.0] 1
x[31.0,5.5] 2
x[31.5,5.0] 3
x[36.5,8.0] 3
x[36.5,8.75] 1
x[36.5,9.5] 2
x[54.5,6.0] 1
x[55.0,5.5] 2
x[55.5,5.0] 3
x[60.5,8.0] 3
x[60.5,8.75] 1
x[60.5,9.5] 2
x[78.5,6.0] 1
x[79.0,5.5] 2
x[79.5,5.0] 3
x[84.5,8.0] 3
x[84.5,8.75] 1
x[84.5,9.5] 2
x[102.5,6.0] 1
x[103.0,5.5] 2
x[103.5,5.0] 3
x[108.5,8.0] 3
x[108.5,8.75] 1
x[108.5,9.5] 2
x[126.5,5.0] 0
x[126.5,5.5] 1
x[126.5,9.75] 0
x[126.5,10.5] 0
x[127.0,5.0] 2
x[127.0,9.25] 0
x[127.0,10.0] 0
x[127.5,8.75] 3
x[127.5,9.5] 0
x[131.5,5.5] 0
x[131.5,9.0] 0
x[131.5,9.75] 0
x[131.5,10.5] 0
x[132.0,5.0] 0
x[132.0,8.5] 3
x[132.0,9.25] 0
x[132.0,10.0] 0
x[136.25,5.0] 1
x[136.25,5.75] 2
x[137.0,5.0] 0
x[150.5,5.0] 0
x[150.5,5.5] 1
x[150.5,9.75] 0
x[150.5,10.5] 0
x[151.0,5.0] 2
x[151.0,9.25] 0
x[151.0,10.0] 0
x[151.5,8.75] 3
x[151.5,9.5] 0
x[155.5,5.5] 0
x[155.5,9.0] 0
x[155.5,9.75] 0
x[155.5,10.5] 0
x[156.0,5.0] 0
x[156.0,8.5] 3
x[156.0,9.25] 0
x[156.0,10.0] 0
x[160.25,5.0] 1
x[160.25,5.75] 2
x[161.0,5.0] 0
y[6.5,6.0] 1
y[7.0,5.5] 1
y[7.5,5.0] 1
y[12.5,8.0] 1
y[12.5,8.75] 1
y[12.5,9.5] 1
y[30.5,6.0] 1
y[31.0,5.5] 1
y[31.5,5.0] 1
y[36.5,8.0] 1
y[36.5,8.75] 1
y[36.5,9.5] 1
y[54.5,6.0] 1
y[55.0,5.5] 1
y[55.5,5.0] 1
y[60.5,8.0] 1
y[60.5,8.75] 1
y[60.5,9.5] 1
y[78.5,6.0] 1
y[79.0,5.5] 1
y[79.5,5.0] 1
y[84.5,8.0] 1
y[84.5,8.75] 1
y[84.5,9.5] 1
y[102.5,6.0] 1
y[103.0,5.5] 1
y[103.5,5.0] 1
y[108.5,8.0] 1
y[108.5,8.75] 1
y[108.5,9.5] 1
y[126.5,5.0] 0
y[126.5,5.5] 1
y[126.5,9.75] 0
y[126.5,10.5] 0
y[127.0,5.0] 1
y[127.0,9.25] 0
y[127.0,10.0] 0
y[127.5,8.75] 1
y[127.5,9.5] 0
y[131.5,5.5] 0
y[131.5,9.0] 0
y[131.5,9.75] 0
y[131.5,10.5] 0
y[132.0,5.0] 0
y[132.0,8.5] 1
y[132.0,9.25] 0
y[132.0,10.0] 0
y[136.25,5.0] 1
y[136.25,5.75] 1
y[137.0,5.0] 0
y[150.5,5.0] 0
y[150.5,5.5] 1
y[150.5,9.75] 0
y[150.5,10.5] 0
y[151.0,5.0] 1
y[151.0,9.25] 0
y[151.0,10.0] 0
y[151.5,8.75] 1
y[151.5,9.5] 0
y[155.5,5.5] 0
y[155.5,9.0] 0
y[155.5,9.75] 0
y[155.5,10.5] 0
y[156.0,5.0] 0
y[156.0,8.5] 1
y[156.0,9.25] 0
y[156.0,10.0] 0
y[160.25,5.0] 1
y[160.25,5.75] 1
y[161.0,5.0] 0
mu[6.5] 0
mu[6.75] 0
mu[7.0] 0
mu[7.25] 0
mu[7.5] 0
mu[7.75] 0
mu[8.0] 0
mu[8.25] 0
mu[8.5] 0
mu[8.75] 0
mu[9.0] 0
mu[9.25] 0
mu[9.5] 0
mu[9.75] 0
mu[10.0] 0
mu[10.25] 0
mu[10.5] 0
mu[10.75] 0
mu[11.0] 0
mu[11.25] 0
mu[11.5] 0
mu[11.75] 0
mu[12.0] 0
mu[12.25] 0
mu[12.5] 0
mu[12.75] 0
mu[13.0] 0
mu[13.25] 0
mu[13.5] 0
mu[13.75] 0
mu[14.0] 0
mu[14.25] 0
mu[14.5] 0
mu[14.75] 0
mu[15.0] 0
mu[15.25] 0
mu[15.5] 0
mu[15.75] 0
mu[16.0] 0
mu[16.25] 0
mu[16.5] 0
mu[16.75] 0
mu[17.0] 0
mu[17.25] 0
mu[17.5] 0
mu[17.75] 0
mu[18.0] 0
mu[18.25] 0
mu[18.5] 0
mu[18.75] 0
mu[19.0] 0
mu[19.25] 0
mu[19.5] 0
mu[19.75] 0
mu[20.0] 0
mu[20.25] 0
mu[20.5] 0
mu[20.75] 0
mu[21.0] 0
mu[21.25] 0
mu[21.5] 0
mu[21.75] 0
mu[30.5] 0
mu[30.75] 0
mu[31.0] 0
mu[31.25] 0
mu[31.5] 0
mu[31.75] 0
mu[32.0] 0
mu[32.25] 0
mu[32.5] 0
mu[32.75] 0
mu[33.0] 0
mu[33.25] 0
mu[33.5] 0
mu[33.75] 0
mu[34.0] 0
mu[34.25] 0
mu[34.5] 0
mu[34.75] 0
mu[35.0] 0
mu[35.25] 0
mu[35.5] 0
mu[35.75] 0
mu[36.0] 0
mu[36.25] 0
mu[36.5] 0
mu[36.75] 0
mu[37.0] 0
mu[37.25] 0
mu[37.5] 0
mu[37.75] 0
mu[38.0] 0
mu[38.25] 0
mu[38.5] 0
mu[38.75] 0
mu[39.0] 0
mu[39.25] 0
mu[39.5] 0
mu[39.75] 0
mu[40.0] 0
mu[40.25] 0
mu[40.5] 0
mu[40.75] 0
mu[41.0] 0
mu[41.25] 0
mu[41.5] 0
mu[41.75] 0
mu[42.0] 0
mu[42.25] 0
mu[42.5] 0
mu[42.75] 0
mu[43.0] 0
mu[43.25] 0
mu[43.5] 0
mu[43.75] 0
mu[44.0] 0
mu[44.25] 0
mu[44.5] 0
mu[44.75] 0
mu[45.0] 0
mu[45.25] 0
mu[45.5] 0
mu[45.75] 0
mu[54.5] 0
mu[54.75] 0
mu[55.0] 0
mu[55.25] 0
mu[55.5] 0
mu[55.75] 0
mu[56.0] 0
mu[56.25] 0
mu[56.5] 0
mu[56.75] 0
mu[57.0] 0
mu[57.25] 0
mu[57.5] 0
mu[57.75] 0
mu[58.0] 0
mu[58.25] 0
mu[58.5] 0
mu[58.75] 0
mu[59.0] 0
mu[59.25] 0
mu[59.5] 0
mu[59.75] 0
mu[60.0] 0
mu[60.25] 0
mu[60.5] 0
mu[60.75] 0
mu[61.0] 0
mu[61.25] 0
mu[61.5] 0
mu[61.75] 0
mu[62.0] 0
mu[62.25] 0
mu[62.5] 0
mu[62.75] 0
mu[63.0] 0
mu[63.25] 0
mu[63.5] 0
mu[63.75] 0
mu[64.0] 0
mu[64.25] 0
mu[64.5] 0
mu[64.75] 0
mu[65.0] 0
mu[65.25] 0
mu[65.5] 0
mu[65.75] 0
mu[66.0] 0
mu[66.25] 0
mu[66.5] 0
mu[66.75] 0
mu[67.0] 0
mu[67.25] 0
mu[67.5] 0
mu[67.75] 0
mu[68.0] 0
mu[68.25] 0
mu[68.5] 0
mu[68.75] 0
mu[69.0] 0
mu[69.25] 0
mu[69.5] 0
mu[69.75] 0
mu[78.5] 0
mu[78.75] 0
mu[79.0] 0
mu[79.25] 0
mu[79.5] 0
mu[79.75] 0
mu[80.0] 0
mu[80.25] 0
mu[80.5] 0
mu[80.75] 0
mu[81.0] 0
mu[81.25] 0
mu[81.5] 0
mu[81.75] 0
mu[82.0] 0
mu[82.25] 0
mu[82.5] 0
mu[82.75] 0
mu[83.0] 0
mu[83.25] 0
mu[83.5] 0
mu[83.75] 0
mu[84.0] 0
mu[84.25] 0
mu[84.5] 0
mu[84.75] 0
mu[85.0] 0
mu[85.25] 0
mu[85.5] 0
mu[85.75] 0
mu[86.0] 0
mu[86.25] 0
mu[86.5] 0
mu[86.75] 0
mu[87.0] 0
mu[87.25] 0
mu[87.5] 0
mu[87.75] 0
mu[88.0] 0
mu[88.25] 0
mu[88.5] 0
mu[88.75] 0
mu[89.0] 0
mu[89.25] 0
mu[89.5] 0
mu[89.75] 0
mu[90.0] 0
mu[90.25] 0
mu[90.5] 0
mu[90.75] 0
mu[91.0] 0
mu[91.25] 0
mu[91.5] 0
mu[91.75] 0
mu[92.0] 0
mu[92.25] 0
mu[92.5] 0
mu[92.75] 0
mu[93.0] 0
mu[93.25] 0
mu[93.5] 0
mu[93.75] 0
mu[102.5] 0
mu[102.75] 0
mu[103.0] 0
mu[103.25] 0
mu[103.5] 0
mu[103.75] 0
mu[104.0] 0
mu[104.25] 0
mu[104.5] 0
mu[104.75] 0
mu[105.0] 0
mu[105.25] 0
mu[105.5] 0
mu[105.75] 0
mu[106.0] 0
mu[106.25] 0
mu[106.5] 0
mu[106.75] 0
mu[107.0] 0
mu[107.25] 0
mu[107.5] 0
mu[107.75] 0
mu[108.0] 0
mu[108.25] 0
mu[108.5] 0
mu[108.75] 0
mu[109.0] 0
mu[109.25] 0
mu[109.5] 0
mu[109.75] 0
mu[110.0] 0
mu[110.25] 0
mu[110.5] 0
mu[110.75] 0
mu[111.0] 0
mu[111.25] 0
mu[111.5] 0
mu[111.75] 0
mu[112.0] 0
mu[112.25] 0
mu[112.5] 0
mu[112.75] 0
mu[113.0] 0
mu[113.25] 0
mu[113.5] 0
mu[113.75] 0
mu[114.0] 0
mu[114.25] 0
mu[114.5] 0
mu[114.75] 0
mu[115.0] 0
mu[115.25] 0
mu[115.5] 0
mu[115.75] 0
mu[116.0] 0
mu[116.25] 0
mu[116.5] 0
mu[116.75] 0
mu[117.0] 0
mu[117.25] 0
mu[117.5] 0
mu[117.75] 0
mu[126.5] 0
mu[126.75] 0
mu[127.0] 0
mu[127.25] 0
mu[127.5] 0
mu[127.75] 0
mu[128.0] 0
mu[128.25] 0
mu[128.5] 0
mu[128.75] 0
mu[129.0] 0
mu[129.25] 0
mu[129.5] 0
mu[129.75] 0
mu[130.0] 0
mu[130.25] 0
mu[130.5] 0
mu[130.75] 0
mu[131.0] 0
mu[131.25] 0
mu[131.5] 1
mu[131.75] 1
mu[132.0] 0
mu[132.25] 0
mu[132.5] 0
mu[132.75] 0
mu[133.0] 0
mu[133.25] 0
mu[133.5] 0
mu[133.75] 0
mu[134.0] 0
mu[134.25] 0
mu[134.5] 0
mu[134.75] 0
mu[135.0] 0
mu[135.25] 0
mu[135.5] 0
mu[135.75] 0
mu[136.0] 0
mu[136.25] 1
mu[136.5] 1
mu[136.75] 1
mu[137.0] 0
mu[137.25] 0
mu[137.5] 0
mu[137.75] 0
mu[138.0] 0
mu[138.25] 0
mu[138.5] 0
mu[138.75] 0
mu[139.0] 0
mu[139.25] 0
mu[139.5] 0
mu[139.75] 0
mu[140.0] 0
mu[140.25] 0
mu[140.5] 0
mu[140.75] 0
mu[141.0] 0
mu[141.25] 0
mu[141.5] 0
mu[141.75] 0
mu[150.5] 0
mu[150.75] 0
mu[151.0] 0
mu[151.25] 0
mu[151.5] 0
mu[151.75] 0
mu[152.0] 0
mu[152.25] 0
mu[152.5] 0
mu[152.75] 0
mu[153.0] 0
mu[153.25] 0
mu[153.5] 0
mu[153.75] 0
mu[154.0] 0
mu[154.25] 0
mu[154.5] 0
mu[154.75] 0
mu[155.0] 0
mu[155.25] 0
mu[155.5] 1
mu[155.75] 1
mu[156.0] 0
mu[156.25] 0
mu[156.5] 0
mu[156.75] 0
mu[157.0] 0
mu[157.25] 0
mu[157.5] 0
mu[157.75] 0
mu[158.0] 0
mu[158.25] 0
mu[158.5] 0
mu[158.75] 0
mu[159.0] 0
mu[159.25] 0
mu[159.5] 0
mu[159.75] 0
mu[160.0] 0
mu[160.25] 1
mu[160.5] 1
mu[160.75] 1
mu[161.0] 0
mu[161.25] 0
mu[161.5] 0
mu[161.75] 0
mu[162.0] 0
mu[162.25] 0
mu[162.5] 0
mu[162.75] 0
mu[163.0] 0
mu[163.25] 0
mu[163.5] 0
mu[163.75] 0
mu[164.0] 0
mu[164.25] 0
mu[164.5] 0
mu[164.75] 0
mu[165.0] 0
mu[165.25] 0
mu[165.5] 0
mu[165.75] 0
delta_plus[0,6.5] 0
delta_plus[0,6.75] 0
delta_plus[0,7.0] 0
delta_plus[0,7.25] 0
delta_plus[0,7.5] 0
delta_plus[0,7.75] 0
delta_plus[0,8.0] 0
delta_plus[0,8.25] 0
delta_plus[0,8.5] 0
delta_plus[0,8.75] 0
delta_plus[0,9.0] 0
delta_plus[0,9.25] 0
delta_plus[0,9.5] 0
delta_plus[0,9.75] 0
delta_plus[0,10.0] 0
delta_plus[0,10.25] 0
delta_plus[0,10.5] 0
delta_plus[0,10.75] 0
delta_plus[0,11.0] 0
delta_plus[0,11.25] 0
delta_plus[0,11.5] 0
delta_plus[0,11.75] 0
delta_plus[0,12.0] 0
delta_plus[0,12.25] 0
delta_plus[0,12.5] 0
delta_plus[0,12.75] 0
delta_plus[0,13.0] 0
delta_plus[0,13.25] 0
delta_plus[0,13.5] 0
delta_plus[0,13.75] 0
delta_plus[0,14.0] 0
delta_plus[0,14.25] 0
delta_plus[0,14.5] 0
delta_plus[0,14.75] 0
delta_plus[0,15.0] 0
delta_plus[0,15.25] 0
delta_plus[0,15.5] 0
delta_plus[0,15.75] 0
delta_plus[0,16.0] 0
delta_plus[0,16.25] 0
delta_plus[0,16.5] 0
delta_plus[0,16.75] 0
delta_plus[0,17.0] 0
delta_plus[0,17.25] 0
delta_plus[0,17.5] 0
delta_plus[0,17.75] 0
delta_plus[0,18.0] 0
delta_plus[0,18.25] 0
delta_plus[0,18.5] 0
delta_plus[0,18.75] 0
delta_plus[0,19.0] 0
delta_plus[0,19.25] 0
delta_plus[0,19.5] 0
delta_plus[0,19.75] 0
delta_plus[0,20.0] 0
delta_plus[0,20.25] 0
delta_plus[0,20.5] 0
delta_plus[0,20.75] 0
delta_plus[0,21.0] 0
delta_plus[0,21.25] 0
delta_plus[0,21.5] 0
delta_plus[0,21.75] 0
delta_plus[0,30.5] 0
delta_plus[0,30.75] 0
delta_plus[0,31.0] 0
delta_plus[0,31.25] 0
delta_plus[0,31.5] 0
delta_plus[0,31.75] 0
delta_plus[0,32.0] 0
delta_plus[0,32.25] 0
delta_plus[0,32.5] 0
delta_plus[0,32.75] 0
delta_plus[0,33.0] 0
delta_plus[0,33.25] 0
delta_plus[0,33.5] 0
delta_plus[0,33.75] 0
delta_plus[0,34.0] 0
delta_plus[0,34.25] 0
delta_plus[0,34.5] 0
delta_plus[0,34.75] 0
delta_plus[0,35.0] 0
delta_plus[0,35.25] 0
delta_plus[0,35.5] 0
delta_plus[0,35.75] 0
delta_plus[0,36.0] 0
delta_plus[0,36.25] 0
delta_plus[0,36.5] 0
delta_plus[0,36.75] 0
delta_plus[0,37.0] 0
delta_plus[0,37.25] 0
delta_plus[0,37.5] 0
delta_plus[0,37.75] 0
delta_plus[0,38.0] 0
delta_plus[0,38.25] 0
delta_plus[0,38.5] 0
delta_plus[0,38.75] 0
delta_plus[0,39.0] 0
delta_plus[0,39.25] 0
delta_plus[0,39.5] 0
delta_plus[0,39.75] 0
delta_plus[0,40.0] 0
delta_plus[0,40.25] 0
delta_plus[0,40.5] 0
delta_plus[0,40.75] 0
delta_plus[0,41.0] 0
delta_plus[0,41.25] 0
delta_plus[0,41.5] 0
delta_plus[0,41.75] 0
delta_plus[0,42.0] 0
delta_plus[0,42.25] 0
delta_plus[0,42.5] 0
delta_plus[0,42.75] 0
delta_plus[0,43.0] 0
delta_plus[0,43.25] 0
delta_plus[0,43.5] 0
delta_plus[0,43.75] 0
delta_plus[0,44.0] 0
delta_plus[0,44.25] 0
delta_plus[0,44.5] 0
delta_plus[0,44.75] 0
delta_plus[0,45.0] 0
delta_plus[0,45.25] 0
delta_plus[0,45.5] 0
delta_plus[0,45.75] 0
delta_plus[0,54.5] 0
delta_plus[0,54.75] 0
delta_plus[0,55.0] 0
delta_plus[0,55.25] 0
delta_plus[0,55.5] 0
delta_plus[0,55.75] 0
delta_plus[0,56.0] 0
delta_plus[0,56.25] 0
delta_plus[0,56.5] 0
delta_plus[0,56.75] 0
delta_plus[0,57.0] 0
delta_plus[0,57.25] 0
delta_plus[0,57.5] 0
delta_plus[0,57.75] 0
delta_plus[0,58.0] 0
delta_plus[0,58.25] 0
delta_plus[0,58.5] 0
delta_plus[0,58.75] 0
delta_plus[0,59.0] 0
delta_plus[0,59.25] 0
delta_plus[0,59.5] 0
delta_plus[0,59.75] 0
delta_plus[0,60.0] 0
delta_plus[0,60.25] 0
delta_plus[0,60.5] 0
delta_plus[0,60.75] 0
delta_plus[0,61.0] 0
delta_plus[0,61.25] 0
delta_plus[0,61.5] 0
delta_plus[0,61.75] 0
delta_plus[0,62.0] 0
delta_plus[0,62.25] 0
delta_plus[0,62.5] 0
delta_plus[0,62.75] 0
delta_plus[0,63.0] 0
delta_plus[0,63.25] 0
delta_plus[0,63.5] 0
delta_plus[0,63.75] 0
delta_plus[0,64.0] 0
delta_plus[0,64.25] 0
delta_plus[0,64.5] 0
delta_plus[0,64.75] 0
delta_plus[0,65.0] 0
delta_plus[0,65.25] 0
delta_plus[0,65.5] 0
delta_plus[0,65.75] 0
delta_plus[0,66.0] 0
delta_plus[0,66.25] 0
delta_plus[0,66.5] 0
delta_plus[0,66.75] 0
delta_plus[0,67.0] 0
delta_plus[0,67.25] 0
delta_plus[0,67.5] 0
delta_plus[0,67.75] 0
delta_plus[0,68.0] 0
delta_plus[0,68.25] 0
delta_plus[0,68.5] 0
delta_plus[0,68.75] 0
delta_plus[0,69.0] 0
delta_plus[0,69.25] 0
delta_plus[0,69.5] 0
delta_plus[0,69.75] 0
delta_plus[0,78.5] 0
delta_plus[0,78.75] 0
delta_plus[0,79.0] 0
delta_plus[0,79.25] 0
delta_plus[0,79.5] 0
delta_plus[0,79.75] 0
delta_plus[0,80.0] 0
delta_plus[0,80.25] 0
delta_plus[0,80.5] 0
delta_plus[0,80.75] 0
delta_plus[0,81.0] 0
delta_plus[0,81.25] 0
delta_plus[0,81.5] 0
delta_plus[0,81.75] 0
delta_plus[0,82.0] 0
delta_plus[0,82.25] 0
delta_plus[0,82.5] 0
delta_plus[0,82.75] 0
delta_plus[0,83.0] 0
delta_plus[0,83.25] 0
delta_plus[0,83.5] 0
delta_plus[0,83.75] 0
delta_plus[0,84.0] 0
delta_plus[0,84.25] 0
delta_plus[0,84.5] 0
delta_plus[0,84.75] 0
delta_plus[0,85.0] 0
delta_plus[0,85.25] 0
delta_plus[0,85.5] 0
delta_plus[0,85.75] 0
delta_plus[0,86.0] 0
delta_plus[0,86.25] 0
delta_plus[0,86.5] 0
delta_plus[0,86.75] 0
delta_plus[0,87.0] 0
delta_plus[0,87.25] 0
delta_plus[0,87.5] 0
delta_plus[0,87.75] 0
delta_plus[0,88.0] 0
delta_plus[0,88.25] 0
delta_plus[0,88.5] 0
delta_plus[0,88.75] 0
delta_plus[0,89.0] 0
delta_plus[0,89.25] 0
delta_plus[0,89.5] 0
delta_plus[0,89.75] 0
delta_plus[0,90.0] 0
delta_plus[0,90.25] 0
delta_plus[0,90.5] 0
delta_plus[0,90.75] 0
delta_plus[0,91.0] 0
delta_plus[0,91.25] 0
delta_plus[0,91.5] 0
delta_plus[0,91.75] 0
delta_plus[0,92.0] 0
delta_plus[0,92.25] 0
delta_plus[0,92.5] 0
delta_plus[0,92.75] 0
delta_plus[0,93.0] 0
delta_plus[0,93.25] 0
delta_plus[0,93.5] 0
delta_plus[0,93.75] 0
delta_plus[0,102.5] 0
delta_plus[0,102.75] 0
delta_plus[0,103.0] 0
delta_plus[0,103.25] 0
delta_plus[0,103.5] 0
delta_plus[0,103.75] 0
delta_plus[0,104.0] 0
delta_plus[0,104.25] 0
delta_plus[0,104.5] 0
delta_plus[0,104.75] 0
delta_plus[0,105.0] 0
delta_plus[0,105.25] 0
delta_plus[0,105.5] 0
delta_plus[0,105.75] 0
delta_plus[0,106.0] 0
delta_plus[0,106.25] 0
delta_plus[0,106.5] 0
delta_plus[0,106.75] 0
delta_plus[0,107.0] 0
delta_plus[0,107.25] 0
delta_plus[0,107.5] 0
delta_plus[0,107.75] 0
delta_plus[0,108.0] 0
delta_plus[0,108.25] 0
delta_plus[0,108.5] 0
delta_plus[0,108.75] 0
delta_plus[0,109.0] 0
delta_plus[0,109.25] 0
delta_plus[0,109.5] 0
delta_plus[0,109.75] 0
delta_plus[0,110.0] 0
delta_plus[0,110.25] 0
delta_plus[0,110.5] 0
delta_plus[0,110.75] 0
delta_plus[0,111.0] 0
delta_plus[0,111.25] 0
delta_plus[0,111.5] 0
delta_plus[0,111.75] 0
delta_plus[0,112.0] 0
delta_plus[0,112.25] 0
delta_plus[0,112.5] 0
delta_plus[0,112.75] 0
delta_plus[0,113.0] 0
delta_plus[0,113.25] 0
delta_plus[0,113.5] 0
delta_plus[0,113.75] 0
delta_plus[0,114.0] 0
delta_plus[0,114.25] 0
delta_plus[0,114.5] 0
delta_plus[0,114.75] 0
delta_plus[0,115.0] 0
delta_plus[0,115.25] 0
delta_plus[0,115.5] 0
delta_plus[0,115.75] 0
delta_plus[0,116.0] 0
delta_plus[0,116.25] 0
delta_plus[0,116.5] 0
delta_plus[0,116.75] 0
delta_plus[0,117.0] 0
delta_plus[0,117.25] 0
delta_plus[0,117.5] 0
delta_plus[0,117.75] 0
delta_plus[0,126.5] 0
delta_plus[0,126.75] 0
delta_plus[0,127.0] 0
delta_plus[0,127.25] 0
delta_plus[0,127.5] 0
delta_plus[0,127.75] 0
delta_plus[0,128.0] 0
delta_plus[0,128.25] 0
delta_plus[0,128.5] 0
delta_plus[0,128.75] 0
delta_plus[0,129.0] 0
delta_plus[0,129.25] 0
delta_plus[0,129.5] 0
delta_plus[0,129.75] 0
delta_plus[0,130.0] 0
delta_plus[0,130.25] 0
delta_plus[0,130.5] 0
delta_plus[0,130.75] 0
delta_plus[0,131.0] 0
delta_plus[0,131.25] 0
delta_plus[0,131.5] 1
delta_plus[0,131.75] 1
delta_plus[0,132.0] 0
delta_plus[0,132.25] 0
delta_plus[0,132.5] 0
delta_plus[0,132.75] 0
delta_plus[0,133.0] 0
delta_plus[0,133.25] 0
delta_plus[0,133.5] 0
delta_plus[0,133.75] 0
delta_plus[0,134.0] 0
delta_plus[0,134.25] 0
delta_plus[0,134.5] 0
delta_plus[0,134.75] 0
delta_plus[0,135.0] 0
delta_plus[0,135.25] 0
delta_plus[0,135.5] 0
delta_plus[0,135.75] 0
delta_plus[0,136.0] 0
delta_plus[0,136.25] 1
delta_plus[0,136.5] 1
delta_plus[0,136.75] 1
delta_plus[0,137.0] 0
delta_plus[0,137.25] 0
delta_plus[0,137.5] 0
delta_plus[0,137.75] 0
delta_plus[0,138.0] 0
delta_plus[0,138.25] 0
delta_plus[0,138.5] 0
delta_plus[0,138.75] 0
delta_plus[0,139.0] 0
delta_plus[0,139.25] 0
delta_plus[0,139.5] 0
delta_plus[0,139.75] 0
delta_plus[0,140.0] 0
delta_plus[0,140.25] 0
delta_plus[0,140.5] 0
delta_plus[0,140.75] 0
delta_plus[0,141.0] 0
delta_plus[0,141.25] 0
delta_plus[0,141.5] 0
delta_plus[0,141.75] 0
delta_plus[0,150.5] 0
delta_plus[0,150.75] 0
delta_plus[0,151.0] 0
delta_plus[0,151.25] 0
delta_plus[0,151.5] 0
delta_plus[0,151.75] 0
delta_plus[0,152.0] 0
delta_plus[0,152.25] 0
delta_plus[0,152.5] 0
delta_plus[0,152.75] 0
delta_plus[0,153.0] 0
delta_plus[0,153.25] 0
delta_plus[0,153.5] 0
delta_plus[0,153.75] 0
delta_plus[0,154.0] 0
delta_plus[0,154.25] 0
delta_plus[0,154.5] 0
delta_plus[0,154.75] 0
delta_plus[0,155.0] 0
delta_plus[0,155.25] 0
delta_plus[0,155.5] 1
delta_plus[0,155.75] 1
delta_plus[0,156.0] 0
delta_plus[0,156.25] 0
delta_plus[0,156.5] 0
delta_plus[0,156.75] 0
delta_plus[0,157.0] 0
delta_plus[0,157.25] 0
delta_plus[0,157.5] 0
delta_plus[0,157.75] 0
delta_plus[0,158.0] 0
delta_plus[0,158.25] 0
delta_plus[0,158.5] 0
delta_plus[0,158.75] 0
delta_plus[0,159.0] 0
delta_plus[0,159.25] 0
delta_plus[0,159.5] 0
delta_plus[0,159.75] 0
delta_plus[0,160.0] 0
delta_plus[0,160.25] 1
delta_plus[0,160.5] 1
delta_plus[0,160.75] 1
delta_plus[0,161.0] 0
delta_plus[0,161.25] 0
delta_plus[0,161.5] 0
delta_plus[0,161.75] 0
delta_plus[0,162.0] 0
delta_plus[0,162.25] 0
delta_plus[0,162.5] 0
delta_plus[0,162.75] 0
delta_plus[0,163.0] 0
delta_plus[0,163.25] 0
delta_plus[0,163.5] 0
delta_plus[0,163.75] 0
delta_plus[0,164.0] 0
delta_plus[0,164.25] 0
delta_plus[0,164.5] 0
delta_plus[0,164.75] 0
delta_plus[0,165.0] 0
delta_plus[0,165.25] 0
delta_plus[0,165.5] 0
delta_plus[0,165.75] 0
delta_minus[0,6.5] 0
delta_minus[0,6.75] 0
delta_minus[0,7.0] 0
delta_minus[0,7.25] 0
delta_minus[0,7.5] 0
delta_minus[0,7.75] 0
delta_minus[0,8.0] 0
delta_minus[0,8.25] 0
delta_minus[0,8.5] 0
delta_minus[0,8.75] 0
delta_minus[0,9.0] 0
delta_minus[0,9.25] 0
delta_minus[0,9.5] 0
delta_minus[0,9.75] 0
delta_minus[0,10.0] 0
delta_minus[0,10.25] 0
delta_minus[0,10.5] 0
delta_minus[0,10.75] 0
delta_minus[0,11.0] 0
delta_minus[0,11.25] 0
delta_minus[0,11.5] 0
delta_minus[0,11.75] 0
delta_minus[0,12.0] 0
delta_minus[0,12.25] 0
delta_minus[0,12.5] 0
delta_minus[0,12.75] 0
delta_minus[0,13.0] 0
delta_minus[0,13.25] 0
delta_minus[0,13.5] 0
delta_minus[0,13.75] 0
delta_minus[0,14.0] 0
delta_minus[0,14.25] 0
delta_minus[0,14.5] 0
delta_minus[0,14.75] 0
delta_minus[0,15.0] 0
delta_minus[0,15.25] 0
delta_minus[0,15.5] 0
delta_minus[0,15.75] 0
delta_minus[0,16.0] 0
delta_minus[0,16.25] 0
delta_minus[0,16.5] 0
delta_minus[0,16.75] 0
delta_minus[0,17.0] 0
delta_minus[0,17.25] 0
delta_minus[0,17.5] 0
delta_minus[0,17.75] 0
delta_minus[0,18.0] 0
delta_minus[0,18.25] 0
delta_minus[0,18.5] 0
delta_minus[0,18.75] 0
delta_minus[0,19.0] 0
delta_minus[0,19.25] 0
delta_minus[0,19.5] 0
delta_minus[0,19.75] 0
delta_minus[0,20.0] 0
delta_minus[0,20.25] 0
delta_minus[0,20.5] 0
delta_minus[0,20.75] 0
delta_minus[0,21.0] 0
delta_minus[0,21.25] 0
delta_minus[0,21.5] 0
delta_minus[0,21.75] 0
delta_minus[0,30.5] 0
delta_minus[0,30.75] 0
delta_minus[0,31.0] 0
delta_minus[0,31.25] 0
delta_minus[0,31.5] 0
delta_minus[0,31.75] 0
delta_minus[0,32.0] 0
delta_minus[0,32.25] 0
delta_minus[0,32.5] 0
delta_minus[0,32.75] 0
delta_minus[0,33.0] 0
delta_minus[0,33.25] 0
delta_minus[0,33.5] 0
delta_minus[0,33.75] 0
delta_minus[0,34.0] 0
delta_minus[0,34.25] 0
delta_minus[0,34.5] 0
delta_minus[0,34.75] 0
delta_minus[0,35.0] 0
delta_minus[0,35.25] 0
delta_minus[0,35.5] 0
delta_minus[0,35.75] 0
delta_minus[0,36.0] 0
delta_minus[0,36.25] 0
delta_minus[0,36.5] 0
delta_minus[0,36.75] 0
delta_minus[0,37.0] 0
delta_minus[0,37.25] 0
delta_minus[0,37.5] 0
delta_minus[0,37.75] 0
delta_minus[0,38.0] 0
delta_minus[0,38.25] 0
delta_minus[0,38.5] 0
delta_minus[0,38.75] 0
delta_minus[0,39.0] 0
delta_minus[0,39.25] 0
delta_minus[0,39.5] 0
delta_minus[0,39.75] 0
delta_minus[0,40.0] 0
delta_minus[0,40.25] 0
delta_minus[0,40.5] 0
delta_minus[0,40.75] 0
delta_minus[0,41.0] 0
delta_minus[0,41.25] 0
delta_minus[0,41.5] 0
delta_minus[0,41.75] 0
delta_minus[0,42.0] 0
delta_minus[0,42.25] 0
delta_minus[0,42.5] 0
delta_minus[0,42.75] 0
delta_minus[0,43.0] 0
delta_minus[0,43.25] 0
delta_minus[0,43.5] 0
delta_minus[0,43.75] 0
delta_minus[0,44.0] 0
delta_minus[0,44.25] 0
delta_minus[0,44.5] 0
delta_minus[0,44.75] 0
delta_minus[0,45.0] 0
delta_minus[0,45.25] 0
delta_minus[0,45.5] 0
delta_minus[0,45.75] 0
delta_minus[0,54.5] 0
delta_minus[0,54.75] 0
delta_minus[0,55.0] 0
delta_minus[0,55.25] 0
delta_minus[0,55.5] 0
delta_minus[0,55.75] 0
delta_minus[0,56.0] 0
delta_minus[0,56.25] 0
delta_minus[0,56.5] 0
delta_minus[0,56.75] 0
delta_minus[0,57.0] 0
delta_minus[0,57.25] 0
delta_minus[0,57.5] 0
delta_minus[0,57.75] 0
delta_minus[0,58.0] 0
delta_minus[0,58.25] 0
delta_minus[0,58.5] 0
delta_minus[0,58.75] 0
delta_minus[0,59.0] 0
delta_minus[0,59.25] 0
delta_minus[0,59.5] 0
delta_minus[0,59.75] 0
delta_minus[0,60.0] 0
delta_minus[0,60.25] 0
delta_minus[0,60.5] 0
delta_minus[0,60.75] 0
delta_minus[0,61.0] 0
delta_minus[0,61.25] 0
delta_minus[0,61.5] 0
delta_minus[0,61.75] 0
delta_minus[0,62.0] 0
delta_minus[0,62.25] 0
delta_minus[0,62.5] 0
delta_minus[0,62.75] 0
delta_minus[0,63.0] 0
delta_minus[0,63.25] 0
delta_minus[0,63.5] 0
delta_minus[0,63.75] 0
delta_minus[0,64.0] 0
delta_minus[0,64.25] 0
delta_minus[0,64.5] 0
delta_minus[0,64.75] 0
delta_minus[0,65.0] 0
delta_minus[0,65.25] 0
delta_minus[0,65.5] 0
delta_minus[0,65.75] 0
delta_minus[0,66.0] 0
delta_minus[0,66.25] 0
delta_minus[0,66.5] 0
delta_minus[0,66.75] 0
delta_minus[0,67.0] 0
delta_minus[0,67.25] 0
delta_minus[0,67.5] 0
delta_minus[0,67.75] 0
delta_minus[0,68.0] 0
delta_minus[0,68.25] 0
delta_minus[0,68.5] 0
delta_minus[0,68.75] 0
delta_minus[0,69.0] 0
delta_minus[0,69.25] 0
delta_minus[0,69.5] 0
delta_minus[0,69.75] 0
delta_minus[0,78.5] 0
delta_minus[0,78.75] 0
delta_minus[0,79.0] 0
delta_minus[0,79.25] 0
delta_minus[0,79.5] 0
delta_minus[0,79.75] 0
delta_minus[0,80.0] 0
delta_minus[0,80.25] 0
delta_minus[0,80.5] 0
delta_minus[0,80.75] 0
delta_minus[0,81.0] 0
delta_minus[0,81.25] 0
delta_minus[0,81.5] 0
delta_minus[0,81.75] 0
delta_minus[0,82.0] 0
delta_minus[0,82.25] 0
delta_minus[0,82.5] 0
delta_minus[0,82.75] 0
delta_minus[0,83.0] 0
delta_minus[0,83.25] 0
delta_minus[0,83.5] 0
delta_minus[0,83.75] 0
delta_minus[0,84.0] 0
delta_minus[0,84.25] 0
delta_minus[0,84.5] 0
delta_minus[0,84.75] 0
delta_minus[0,85.0] 0
delta_minus[0,85.25] 0
delta_minus[0,85.5] 0
delta_minus[0,85.75] 0
delta_minus[0,86.0] 0
delta_minus[0,86.25] 0
delta_minus[0,86.5] 0
delta_minus[0,86.75] 0
delta_minus[0,87.0] 0
delta_minus[0,87.25] 0
delta_minus[0,87.5] 0
delta_minus[0,87.75] 0
delta_minus[0,88.0] 0
delta_minus[0,88.25] 0
delta_minus[0,88.5] 0
delta_minus[0,88.75] 0
delta_minus[0,89.0] 0
delta_minus[0,89.25] 0
delta_minus[0,89.5] 0
delta_minus[0,89.75] 0
delta_minus[0,90.0] 0
delta_minus[0,90.25] 0
delta_minus[0,90.5] 0
delta_minus[0,90.75] 0
delta_minus[0,91.0] 0
delta_minus[0,91.25] 0
delta_minus[0,91.5] 0
delta_minus[0,91.75] 0
delta_minus[0,92.0] 0
delta_minus[0,92.25] 0
delta_minus[0,92.5] 0
delta_minus[0,92.75] 0
delta_minus[0,93.0] 0
delta_minus[0,93.25] 0
delta_minus[0,93.5] 0
delta_minus[0,93.75] 0
delta_minus[0,102.5] 0
delta_minus[0,102.75] 0
delta_minus[0,103.0] 0
delta_minus[0,103.25] 0
delta_minus[0,103.5] 0
delta_minus[0,103.75] 0
delta_minus[0,104.0] 0
delta_minus[0,104.25] 0
delta_minus[0,104.5] 0
delta_minus[0,104.75] 0
delta_minus[0,105.0] 0
delta_minus[0,105.25] 0
delta_minus[0,105.5] 0
delta_minus[0,105.75] 0
delta_minus[0,106.0] 0
delta_minus[0,106.25] 0
delta_minus[0,106.5] 0
delta_minus[0,106.75] 0
delta_minus[0,107.0] 0
delta_minus[0,107.25] 0
delta_minus[0,107.5] 0
delta_minus[0,107.75] 0
delta_minus[0,108.0] 0
delta_minus[0,108.25] 0
delta_minus[0,108.5] 0
delta_minus[0,108.75] 0
delta_minus[0,109.0] 0
delta_minus[0,109.25] 0
delta_minus[0,109.5] 0
delta_minus[0,109.75] 0
delta_minus[0,110.0] 0
delta_minus[0,110.25] 0
delta_minus[0,110.5] 0
delta_minus[0,110.75] 0
delta_minus[0,111.0] 0
delta_minus[0,111.25] 0
delta_minus[0,111.5] 0
delta_minus[0,111.75] 0
delta_minus[0,112.0] 0
delta_minus[0,112.25] 0
delta_minus[0,112.5] 0
delta_minus[0,112.75] 0
delta_minus[0,113.0] 0
delta_minus[0,113.25] 0
delta_minus[0,113.5] 0
delta_minus[0,113.75] 0
delta_minus[0,114.0] 0
delta_minus[0,114.25] 0
delta_minus[0,114.5] 0
delta_minus[0,114.75] 0
delta_minus[0,115.0] 0
delta_minus[0,115.25] 0
delta_minus[0,115.5] 0
delta_minus[0,115.75] 0
delta_minus[0,116.0] 0
delta_minus[0,116.25] 0
delta_minus[0,116.5] 0
delta_minus[0,116.75] 0
delta_minus[0,117.0] 0
delta_minus[0,117.25] 0
delta_minus[0,117.5] 0
delta_minus[0,117.75] 0
delta_minus[0,126.5] 0
delta_minus[0,126.75] 0
delta_minus[0,127.0] 0
delta_minus[0,127.25] 0
delta_minus[0,127.5] 0
delta_minus[0,127.75] 0
delta_minus[0,128.0] 0
delta_minus[0,128.25] 0
delta_minus[0,128.5] 0
delta_minus[0,128.75] 0
delta_minus[0,129.0] 0
delta_minus[0,129.25] 0
delta_minus[0,129.5] 0
delta_minus[0,129.75] 0
delta_minus[0,130.0] 0
delta_minus[0,130.25] 0
delta_minus[0,130.5] 0
delta_minus[0,130.75] 0
delta_minus[0,131.0] 0
delta_minus[0,131.25] 0
delta_minus[0,131.5] 0
delta_minus[0,131.75] 0
delta_minus[0,132.0] 0
delta_minus[0,132.25] 0
delta_minus[0,132.5] 0
delta_minus[0,132.75] 0
delta_minus[0,133.0] 0
delta_minus[0,133.25] 0
delta_minus[0,133.5] 0
delta_minus[0,133.75] 0
delta_minus[0,134.0] 0
delta_minus[0,134.25] 0
delta_minus[0,134.5] 0
delta_minus[0,134.75] 0
delta_minus[0,135.0] 0
delta_minus[0,135.25] 0
delta_minus[0,135.5] 0
delta_minus[0,135.75] 0
delta_minus[0,136.0] 0
delta_minus[0,136.25] 0
delta_minus[0,136.5] 0
delta_minus[0,136.75] 0
delta_minus[0,137.0] 0
delta_minus[0,137.25] 0
delta_minus[0,137.5] 0
delta_minus[0,137.75] 0
delta_minus[0,138.0] 0
delta_minus[0,138.25] 0
delta_minus[0,138.5] 0
delta_minus[0,138.75] 0
delta_minus[0,139.0] 0
delta_minus[0,139.25] 0
delta_minus[0,139.5] 0
delta_minus[0,139.75] 0
delta_minus[0,140.0] 0
delta_minus[0,140.25] 0
delta_minus[0,140.5] 0
delta_minus[0,140.75] 0
delta_minus[0,141.0] 0
delta_minus[0,141.25] 0
delta_minus[0,141.5] 0
delta_minus[0,141.75] 0
delta_minus[0,150.5] 0
delta_minus[0,150.75] 0
delta_minus[0,151.0] 0
delta_minus[0,151.25] 0
delta_minus[0,151.5] 0
delta_minus[0,151.75] 0
delta_minus[0,152.0] 0
delta_minus[0,152.25] 0
delta_minus[0,152.5] 0
delta_minus[0,152.75] 0
delta_minus[0,153.0] 0
delta_minus[0,153.25] 0
delta_minus[0,153.5] 0
delta_minus[0,153.75] 0
delta_minus[0,154.0] 0
delta_minus[0,154.25] 0
delta_minus[0,154.5] 0
delta_minus[0,154.75] 0
delta_minus[0,155.0] 0
delta_minus[0,155.25] 0
delta_minus[0,155.5] 0
delta_minus[0,155.75] 0
delta_minus[0,156.0] 0
delta_minus[0,156.25] 0
delta_minus[0,156.5] 0
delta_minus[0,156.75] 0
delta_minus[0,157.0] 0
delta_minus[0,157.25] 0
delta_minus[0,157.5] 0
delta_minus[0,157.75] 0
delta_minus[0,158.0] 0
delta_minus[0,158.25] 0
delta_minus[0,158.5] 0
delta_minus[0,158.75] 0
delta_minus[0,159.0] 0
delta_minus[0,159.25] 0
delta_minus[0,159.5] 0
delta_minus[0,159.75] 0
delta_minus[0,160.0] 0
delta_minus[0,160.25] 0
delta_minus[0,160.5] 0
delta_minus[0,160.75] 0
delta_minus[0,161.0] 0
delta_minus[0,161.25] 0
delta_minus[0,161.5] 0
delta_minus[0,161.75] 0
delta_minus[0,162.0] 0
delta_minus[0,162.25] 0
delta_minus[0,162.5] 0
delta_minus[0,162.75] 0
delta_minus[0,163.0] 0
delta_minus[0,163.25] 0
delta_minus[0,163.5] 0
delta_minus[0,163.75] 0
delta_minus[0,164.0] 0
delta_minus[0,164.25] 0
delta_minus[0,164.5] 0
delta_minus[0,164.75] 0
delta_minus[0,165.0] 0
delta_minus[0,165.25] 0
delta_minus[0,165.5] 0
delta_minus[0,165.75] 0
rho_short[7.0,5.5] 0.5
rho_short[7.5,5.0] 1
rho_short[31.0,5.5] 0.5
rho_short[31.5,5.0] 1
rho_short[55.0,5.5] 0.5
rho_short[55.5,5.0] 1
rho_short[79.0,5.5] 0.5
rho_short[79.5,5.0] 1
rho_short[103.0,5.5] 0.5
rho_short[103.5,5.0] 1
rho_short[126.5,5.0] 0
rho_short[126.5,5.5] 0.5
rho_short[127.0,5.0] 1
rho_short[131.5,5.5] 0
rho_short[132.0,5.0] 0
rho_short[136.25,5.0] 1
rho_short[136.25,5.75] 0.25
rho_short[137.0,5.0] 0
rho_short[150.5,5.0] 0
rho_short[150.5,5.5] 0.5
rho_short[151.0,5.0] 1
rho_short[155.5,5.5] 0
rho_short[156.0,5.0] 0
rho_short[160.25,5.0] 1
rho_short[160.25,5.75] 0.25
rho_short[161.0,5.0] 0
